/*********************************************
 * OPL 12.6.0.0 Data
 * Author: Adrian Rodriguez Bazaga, Pau Rodriguez Esmerats
 * Creation Date: 01/12/2017 at 09:09:14
 *********************************************/

nNurses=560;
maxConsec=2;
maxPresence=7;
maxHours=5;
minHours=1;
demand= [107 110 160 164 110 160 164 113 120 72 16 19 20 23 24 20 14 8 8 4 95 181 90 141  ];
